problems/csplib-prob056/sonet-models/noch/O2/lingeling/model_3_1-s3ring09-solution000001.solution
language Essence 1.3

letting network be mset({}, {}, {1, 2, 3, 10, 12}, {1, 3, 4, 9, 11}, {2, 5, 6, 7, 12}, {2, 8}, {3, 6, 8, 11, 13})
$ Here is a simple "visualisation" for the value above.
$ 
$ 
$  1  2  3 10 12
$  1  3  4  9 11
$  2  5  6  7 12
$  2  8
$  3  6  8 11 13

